NAME: Random_95_3
ELLAPSED_TIME_(ms): 1
TOUR_SIZE: 2773.6272
TOUR_SECTION
0
33
18
41
56
5
74
46
91
94
22
10
92
1
37
11
2
63
58
15
36
23
43
72
83
76
77
34
21
60
40
85
26
81
20
16
59
89
53
82
54
6
45
14
93
61
38
27
78
70
52
9
57
25
48
7
84
71
87
42
64
17
50
79
19
30
90
66
80
8
32
29
65
31
86
24
51
49
13
35
44
4
75
67
62
88
73
47
12
39
55
68
69
28
3
0
EOF
